WARNING: for repeatability, setting FPU to use double precision
============================[ Problem Statistics ]=============================
|                                                                             |
|  Number of variables:           100                                         |
|  Number of clauses:             449                                         |
|  Parse time:                   0.00 s                                       |
|  Simplification time:          0.00 s                                       |
|                                                                             |
============================[ Search Statistics ]==============================
| Conflicts |          ORIGINAL         |          LEARNT          | Progress |
|           |    Vars  Clauses Literals |    Limit  Clauses Lit/Cl |          |
===============================================================================
|       100 |     100      449     1347 |      164      100      7 |  0.010 % |
|       250 |     100      449     1347 |      181      164      6 |  0.051 % |
===============================================================================
restarts              : 4
conflicts             : 448            (97497 /sec)
decisions             : 535            (0.00 % random) (116431 /sec)
propagations          : 11056          (2406094 /sec)
conflict literals     : 2737           (21.80 % deleted)
Memory used           : 13.00 MB
CPU time              : 0.004595 s

SATISFIABLE
